CST05
Position Depot: Random
Horizon for Depot: Small
Position of customers: Cluster
Distribution of the demand: Medium
Width of time windows: Tight
Distribution of the service: Large

VEHICLE 
NUMBER 	 CAPACITY 
 5 	 	 179 
 
CUSTOMER
CUST NO. 	 XCOORD.  	 YCOORD. 	 DEMAND 	 READY TIME 	 DUE DATE 	 SERVICE TIME 
 0 	 	 996 	 	 946 	 	 0 	 	 0 	 	 2322 	 	 0 
  1 	 	 93 	 	 870 	 	 3 	 	 904 	 	 1037 	 	 196 
  2 	 	 362 	 	 124 	 	 8 	 	 1298 	 	 1377 	 	 200 
  3 	 	 592 	 	 323 	 	 5 	 	 1701 	 	 1765 	 	 156 
  4 	 	 457 	 	 326 	 	 1 	 	 820 	 	 903 	 	 173 
  5 	 	 279 	 	 211 	 	 8 	 	 1043 	 	 1213 	 	 194 
  6 	 	 660 	 	 850 	 	 66 	 	 1669 	 	 1745 	 	 180 
  7 	 	 243 	 	 21 	 	 8 	 	 1261 	 	 1312 	 	 105 
  8 	 	 53 	 	 63 	 	 7 	 	 1828 	 	 2019 	 	 165 
  9 	 	 163 	 	 886 	 	 9 	 	 735 	 	 918 	 	 136 
  10 	 	 511 	 	 331 	 	 8 	 	 710 	 	 861 	 	 108 
  11 	 	 411 	 	 351 	 	 6 	 	 724 	 	 917 	 	 117 
  12 	 	 224 	 	 378 	 	 6 	 	 1304 	 	 1365 	 	 134 
  13 	 	 322 	 	 205 	 	 6 	 	 1986 	 	 2150 	 	 141 
  14 	 	 418 	 	 258 	 	 9 	 	 933 	 	 1090 	 	 186 
  15 	 	 73 	 	 809 	 	 5 	 	 1501 	 	 1581 	 	 186 
  16 	 	 73 	 	 85 	 	 7 	 	 1296 	 	 1388 	 	 200 
  17 	 	 288 	 	 120 	 	 77 	 	 1297 	 	 1417 	 	 144 
  18 	 	 386 	 	 131 	 	 1 	 	 1415 	 	 1607 	 	 194 
  19 	 	 466 	 	 378 	 	 3 	 	 1239 	 	 1404 	 	 173 
  20 	 	 339 	 	 264 	 	 5 	 	 1950 	 	 2017 	 	 127 
  21 	 	 474 	 	 264 	 	 8 	 	 973 	 	 1071 	 	 124 
  22 	 	 91 	 	 865 	 	 6 	 	 1373 	 	 1537 	 	 174 
  23 	 	 473 	 	 254 	 	 54 	 	 895 	 	 954 	 	 130 
  24 	 	 386 	 	 19 	 	 77 	 	 1315 	 	 1453 	 	 185 
  25 	 	 292 	 	 58 	 	 7 	 	 1086 	 	 1246 	 	 114 
  26 	 	 380 	 	 316 	 	 96 	 	 1332 	 	 1444 	 	 180 
  27 	 	 425 	 	 344 	 	 72 	 	 980 	 	 1052 	 	 147 
  28 	 	 71 	 	 857 	 	 5 	 	 891 	 	 1022 	 	 149 
  29 	 	 274 	 	 323 	 	 3 	 	 2145 	 	 2322 	 	 131 
  30 	 	 470 	 	 294 	 	 8 	 	 847 	 	 921 	 	 195 
  31 	 	 201 	 	 8 	 	 7 	 	 1288 	 	 1352 	 	 143 
  32 	 	 250 	 	 204 	 	 55 	 	 1334 	 	 1454 	 	 116 
  33 	 	 19 	 	 138 	 	 2 	 	 1724 	 	 1897 	 	 149 
  34 	 	 395 	 	 185 	 	 3 	 	 913 	 	 1066 	 	 187 
  35 	 	 70 	 	 887 	 	 6 	 	 2071 	 	 2254 	 	 194 
  36 	 	 595 	 	 784 	 	 5 	 	 745 	 	 895 	 	 162 
  37 	 	 292 	 	 17 	 	 99 	 	 1087 	 	 1282 	 	 107 
  38 	 	 291 	 	 169 	 	 9 	 	 1094 	 	 1154 	 	 106 
  39 	 	 83 	 	 865 	 	 74 	 	 2203 	 	 2322 	 	 168 
  40 	 	 292 	 	 293 	 	 4 	 	 1739 	 	 1868 	 	 199 
  41 	 	 338 	 	 173 	 	 5 	 	 1941 	 	 1996 	 	 143 
  42 	 	 104 	 	 928 	 	 1 	 	 2050 	 	 2194 	 	 109 
  43 	 	 212 	 	 18 	 	 6 	 	 1588 	 	 1721 	 	 145 
  44 	 	 586 	 	 312 	 	 9 	 	 957 	 	 1145 	 	 105 
  45 	 	 470 	 	 361 	 	 4 	 	 756 	 	 865 	 	 134 
  46 	 	 639 	 	 658 	 	 7 	 	 872 	 	 999 	 	 146 
  47 	 	 432 	 	 401 	 	 9 	 	 773 	 	 862 	 	 148 
  48 	 	 415 	 	 313 	 	 3 	 	 1511 	 	 1706 	 	 114 
  49 	 	 645 	 	 871 	 	 1 	 	 1633 	 	 1757 	 	 118 
  50 	 	 268 	 	 320 	 	 1 	 	 915 	 	 1056 	 	 105 
 